Route #1: 1 42 26 37 7 45 11 30 38
Route #2: 1 41 43 21 31 19 2 9
Route #3: 1 48 28 52 6 44 8
Route #4: 1 34 36 33 35 14 47 50 16 20 18 5
Route #5: 1 32 29 12 22 15 40 25 4 24 39
Route #6: 1 46 13 51 23 27 10 17 49
Route #7: 1 3
cost 937
